(set-logic HORN)
(declare-fun state (Int (Array Int Int) (Array Int Int) (Array Int Int) (Array Int Int) Int Int (Array Int Int) (Array Int Int) Int Int Int Int Int Int Int Int Int Int Int Int Int Int Int Int Int Bool Bool Bool Bool Bool (Array Int Int)) Bool)
(assert (forall ((|A_13| Int) (|B_13| (Array Int Int)) (|C_13| (Array Int Int)) (|D_13| (Array Int Int)) (|E_13| (Array Int Int)) (|F_13| Int) (|G_13| Int) (|H_13| (Array Int Int)) (|I_13| (Array Int Int)) (|J_13| Int) (|K_13| Int) (|L_13| Int) (|M_13| Int) (|N_13| Int) (|O_13| Int) (|P_13| Int) (|Q_13| Int) (|R_13| Int) (|S_13| Int) (|T_13| Int) (|U_13| Int) (|V_13| Int) (|W_13| Int) (|X_13| Int) (|Y_13| Int) (|Z_13| Int) (|B1_7| Bool) (|.loc.5| Bool) (|.loc.6| Bool) (|.loc.7| Bool) (|.loc.8| Bool) (|B1_0| (Array Int Int)) (|.x.356| Int) (|.x.354| (Array Int Int)) (|.x.352| Int) (|.x.350| (Array Int Int)) (|.x.346| Int) (|.x.348| (Array Int Int)) (|.x.347| (Array Int Int)) (|A1_13| Bool) (|.x.357| Int) (|.x.363| Int) (|.x.364| Int) (|.x.365| Int) (|.x.367| Int) (|.x.369| Int) (|.loc.12| Bool) (|.loc.10| Bool) (|.loc.11| Bool) (|.x.368| Int) (|.x.358| Int) (|.x.370| Int) (|.x.371| Int) (|.loc.9| Bool) (|.x.362| Int) (|.x.359| Int) (|.x.360| Int) (|.x.349| (Array Int Int)) (|.x.361| Int) (|.x.366| Int) (|.x.355| Int) (|.x.351| Int) (|.x.353| (Array Int Int)) (|.xtv.1| (Array Int Int))) (=> (and (and (and (and .loc.5 (not .loc.6)) (not .loc.7)) (not .loc.8)) (and (and (and (and (and (= D_13 E_13) (not B1_7)) (= J_13 K_13)) (= F_13 G_13)) (= H_13 I_13)) (= B_13 C_13))) (state |A_13| |B_13| |C_13| |D_13| |E_13| |F_13| |G_13| |H_13| |I_13| |J_13| |K_13| |L_13| |M_13| |N_13| |O_13| |P_13| |Q_13| |R_13| |S_13| |T_13| |U_13| |V_13| |W_13| |X_13| |Y_13| |Z_13| |B1_7| |.loc.5| |.loc.6| |.loc.7| |.loc.8| |B1_0|))))
(assert (forall ((|A_13| Int) (|B_13| (Array Int Int)) (|C_13| (Array Int Int)) (|D_13| (Array Int Int)) (|E_13| (Array Int Int)) (|F_13| Int) (|G_13| Int) (|H_13| (Array Int Int)) (|I_13| (Array Int Int)) (|J_13| Int) (|K_13| Int) (|L_13| Int) (|M_13| Int) (|N_13| Int) (|O_13| Int) (|P_13| Int) (|Q_13| Int) (|R_13| Int) (|S_13| Int) (|T_13| Int) (|U_13| Int) (|V_13| Int) (|W_13| Int) (|X_13| Int) (|Y_13| Int) (|Z_13| Int) (|B1_7| Bool) (|.loc.5| Bool) (|.loc.6| Bool) (|.loc.7| Bool) (|.loc.8| Bool) (|B1_0| (Array Int Int)) (|.x.356| Int) (|.x.354| (Array Int Int)) (|.x.352| Int) (|.x.350| (Array Int Int)) (|.x.346| Int) (|.x.348| (Array Int Int)) (|.x.347| (Array Int Int)) (|A1_13| Bool) (|.x.357| Int) (|.x.363| Int) (|.x.364| Int) (|.x.365| Int) (|.x.367| Int) (|.x.369| Int) (|.loc.12| Bool) (|.loc.10| Bool) (|.loc.11| Bool) (|.x.368| Int) (|.x.358| Int) (|.x.370| Int) (|.x.371| Int) (|.loc.9| Bool) (|.x.362| Int) (|.x.359| Int) (|.x.360| Int) (|.x.349| (Array Int Int)) (|.x.361| Int) (|.x.366| Int) (|.x.355| Int) (|.x.351| Int) (|.x.353| (Array Int Int)) (|.xtv.1| (Array Int Int))) (=> (and (state |A_13| |B_13| |C_13| |D_13| |E_13| |F_13| |G_13| |H_13| |I_13| |J_13| |K_13| |L_13| |M_13| |N_13| |O_13| |P_13| |Q_13| |R_13| |S_13| |T_13| |U_13| |V_13| |W_13| |X_13| |Y_13| |Z_13| |B1_7| |.loc.5| |.loc.6| |.loc.7| |.loc.8| |B1_0|) (let ((.def_42 (not .loc.6))) (let ((.def_44 (not .loc.7))) (let ((.def_79 (= B_13 .x.347))) (let ((.def_83 (= L_13 .x.357))) (let ((.def_86 (= R_13 .x.363))) (let ((.def_89 (= S_13 .x.364))) (let ((.def_92 (= T_13 .x.365))) (let ((.def_95 (= V_13 .x.367))) (let ((.def_98 (= X_13 .x.369))) (let ((.def_100 (not .loc.5))) (let ((.def_112 (= B1_7 A1_13))) (let ((.def_119 (not .loc.10))) (let ((.def_122 (not .loc.11))) (let ((.def_125 (= M_13 0))) (let ((.def_127 (and .def_79 .def_83))) (let ((.def_132 (and .def_98 (and .def_95 (and .def_92 (and .def_89 (and .def_86 .def_127))))))) (let ((.def_137 (not .loc.12))) (let ((.def_143 (= W_13 .x.368))) (let ((.def_145 (= M_13 .x.358))) (let ((.def_148 (= Y_13 .x.370))) (let ((.def_151 (= Z_13 .x.371))) (let ((.def_154 (not .loc.9))) (let ((.def_168 (select D_13 V_13))) (let ((.def_175 (select D_13 S_13))) (let ((.def_179 (<= 100000 Q_13))) (let ((.def_196 (= Q_13 .x.362))) (let ((.def_198 (= N_13 .x.359))) (let ((.def_207 (and .def_127 .def_145))) (let ((.def_226 (and .def_198 .def_207))) (let ((.def_245 (and B1_7 .def_79))) (let ((.def_257 (and .def_151 (and .def_148 (and .def_98 (and .def_143 (and .def_95 (and .def_92 (and .def_89 (and .def_86 (and .def_196 (and .def_198 (and .def_145 (and .def_83 .def_245)))))))))))))) (let ((.def_276 (and .def_151 (and .def_148 (and .def_98 (and .def_143 (and .def_95 (and .def_92 (and .def_89 (and .def_86 (and .def_196 .def_226))))))))))) (let ((.def_296 (<= 100000 O_13))) (let ((.def_299 (and .def_100 (and .loc.6 .def_276)))) (let ((.def_309 (= O_13 .x.360))) (let ((.def_311 (= D_13 .x.349))) (let ((.def_314 (= P_13 .x.361))) (let ((.def_317 (= U_13 .x.366))) (let ((.def_436 (store B1_0 .x.364 1))) (and (and (not .loc.8) (and (= K_13 .x.356) (and (= I_13 .x.354) (and (= G_13 .x.352) (and (= E_13 .x.350) (and (= A_13 .x.346) (= C_13 .x.348))))))) (or (and (or (or (or (and (or (or (or (or (or (or (and (or (and (or (and (or (and (and (and (and (and (and (and (and .def_79 A1_13) .def_83) .def_86) .def_89) .def_92) .def_95) .def_98) .def_100) (and (or B1_7 (and (= .x.365 0) (= .x.347 (store (store B_13 S_13 0) V_13 0)))) (and (and .loc.5 (or A1_13 (= .x.363 .x.365))) .def_112))) (and (and (and .loc.6 .loc.12) .def_119) .def_122)) (and (or B1_7 .def_125) (and .def_42 (and (and .def_112 (and .loc.11 (and .loc.10 (and .loc.5 .def_132)))) .def_137)))) (and (and (and (and .def_143 .def_145) .def_148) .def_151) .def_154)) (and (or B1_7 (and (= .x.368 .x.358) (and (= .x.368 (ite (= .x.370 .x.371) 1 0)) (and (= .x.370 (select .def_168 (+ (+ (* (- 4) Q_13) X_13) 399996))) (and (= .x.371 (select .def_175 (+ L_13 (* 4 Q_13)))) (not .def_179)))))) (and .def_42 (and .def_137 (and .def_112 (and .def_119 (and .loc.11 (and .loc.9 (and .def_100 .def_132))))))))) (and .loc.7 (and .def_196 .def_198))) (and (or A1_13 (= (+ Q_13 (* (- 1) .x.362)) (- 1))) (and .def_44 (and .def_42 (and .def_137 (and .def_112 (and .def_119 (and .def_154 (and .loc.11 (and .def_100 (and .def_98 (and .def_143 (and .def_95 (and .def_92 (and .def_89 (and .def_86 .def_207)))))))))))))))) (and (or B1_7 (= .x.362 0)) (and .def_44 (and .def_137 (and .def_112 (and .def_119 (and .def_154 (and .loc.11 (and .loc.6 (and .loc.5 (and .def_151 (and .def_148 (and .def_98 (and .def_143 (and .def_95 (and .def_92 (and .def_89 (and .def_86 .def_226)))))))))))))))))) (and .def_42 (and .def_137 (and .def_112 (and .loc.11 (and .loc.10 (and .loc.9 (and .def_100 (and .loc.7 .def_257))))))))) (and (or B1_7 .def_179) (and .def_42 (and .def_137 (and .def_112 (and .loc.11 (and .loc.10 (and .loc.9 (and .def_100 (and .loc.7 .def_276)))))))))) (and .def_44 (and .def_137 (and .def_112 (and .def_122 (and .loc.10 (and .loc.9 (and .def_100 (and .loc.6 .def_257))))))))) (and (or B1_7 .def_296) (and .def_44 (and .def_137 (and .def_112 (and .def_122 (and .loc.10 (and .loc.9 .def_299)))))))) (and (and (and .def_309 .def_311) .def_314) .def_317)) (and (or B1_7 (and (= .x.349 (store D_13 V_13 (store .def_168 (+ (* 4 O_13) X_13) (select .def_175 (+ (+ L_13 (* (- 4) O_13)) 399996))))) (not .def_296))) (and (or A1_13 (= (+ O_13 (* (- 1) .x.360)) (- 1))) (and .def_44 (and .def_137 (and .def_112 (and .def_122 (and .def_154 (and .loc.10 .def_299))))))))) (and (or B1_7 (not .def_125)) (and .def_42 (and .def_137 (and .def_112 (and .def_122 (and .def_119 (and .def_154 (and .loc.7 (and .loc.5 (and .def_151 (and .def_148 (and .def_98 (and .def_143 (and .def_95 (and .def_317 (and .def_92 (and .def_89 (and .def_86 (and .def_196 (and .def_314 (and .def_309 (and .def_198 (and .def_145 (and .def_83 (and .def_79 .def_311)))))))))))))))))))))))))) (and .def_137 (and .def_112 (and .def_122 (and .def_119 (and .def_154 (and .def_100 (and .loc.7 (and .loc.6 (and .def_151 (and .def_148 (and .def_98 (and .def_143 (and .def_95 (and .def_317 (and .def_92 (and .def_89 (and .def_86 (and .def_196 (and .def_314 (and .def_309 (and .def_198 (and .def_145 (and .def_83 (and .def_245 .def_311))))))))))))))))))))))))) (and (= J_13 .x.355) (and (= F_13 .x.351) (= H_13 .x.353)))) (and (or B1_7 (and (and (= .x.355 0) (= .x.351 0)) (= B1_0 (store B_13 0 0)))) (and (or A1_13 (and (and (and (and (and (and (and (and (and (and (not (<= .x.346 .x.364)) (not (<= .x.346 .x.367))) (= .x.360 0)) (not (= .x.367 0))) (not (= .x.364 0))) (= .x.357 0)) (= .x.369 0)) (= (select B1_0 .x.364) 0)) (= (select .def_436 .x.367) 0)) (= .x.347 (store .def_436 .x.367 1))) (= .x.353 (store (store H_13 .x.364 400000) .x.367 400000)))) (and .def_44 (and .def_42 (and .def_137 (and .def_112 (and .def_122 (and .def_154 (and .loc.10 (and .loc.5 (and .def_143 (and .def_86 (and .def_145 .def_311))))))))))))))))))))))))))))))))))))))))))))))))))))))) (state |.x.346| |.x.347| |.x.348| |.x.349| |.x.350| |.x.351| |.x.352| |.x.353| |.x.354| |.x.355| |.x.356| |.x.357| |.x.358| |.x.359| |.x.360| |.x.361| |.x.362| |.x.363| |.x.364| |.x.365| |.x.366| |.x.367| |.x.368| |.x.369| |.x.370| |.x.371| |A1_13| |.loc.9| |.loc.10| |.loc.11| |.loc.12| |.xtv.1|))))
(assert (forall ((|A_13| Int) (|B_13| (Array Int Int)) (|C_13| (Array Int Int)) (|D_13| (Array Int Int)) (|E_13| (Array Int Int)) (|F_13| Int) (|G_13| Int) (|H_13| (Array Int Int)) (|I_13| (Array Int Int)) (|J_13| Int) (|K_13| Int) (|L_13| Int) (|M_13| Int) (|N_13| Int) (|O_13| Int) (|P_13| Int) (|Q_13| Int) (|R_13| Int) (|S_13| Int) (|T_13| Int) (|U_13| Int) (|V_13| Int) (|W_13| Int) (|X_13| Int) (|Y_13| Int) (|Z_13| Int) (|B1_7| Bool) (|.loc.5| Bool) (|.loc.6| Bool) (|.loc.7| Bool) (|.loc.8| Bool) (|B1_0| (Array Int Int)) (|.x.356| Int) (|.x.354| (Array Int Int)) (|.x.352| Int) (|.x.350| (Array Int Int)) (|.x.346| Int) (|.x.348| (Array Int Int)) (|.x.347| (Array Int Int)) (|A1_13| Bool) (|.x.357| Int) (|.x.363| Int) (|.x.364| Int) (|.x.365| Int) (|.x.367| Int) (|.x.369| Int) (|.loc.12| Bool) (|.loc.10| Bool) (|.loc.11| Bool) (|.x.368| Int) (|.x.358| Int) (|.x.370| Int) (|.x.371| Int) (|.loc.9| Bool) (|.x.362| Int) (|.x.359| Int) (|.x.360| Int) (|.x.349| (Array Int Int)) (|.x.361| Int) (|.x.366| Int) (|.x.355| Int) (|.x.351| Int) (|.x.353| (Array Int Int)) (|.xtv.1| (Array Int Int))) (=> (state |A_13| |B_13| |C_13| |D_13| |E_13| |F_13| |G_13| |H_13| |I_13| |J_13| |K_13| |L_13| |M_13| |N_13| |O_13| |P_13| |Q_13| |R_13| |S_13| |T_13| |U_13| |V_13| |W_13| |X_13| |Y_13| |Z_13| |B1_7| |.loc.5| |.loc.6| |.loc.7| |.loc.8| |B1_0|) (not (and B1_7 (and .loc.8 (and (not .loc.7) (and (not .loc.6) (not .loc.5)))))))))
(check-sat)
